1 1 2 0
1 -1 3 0
1 -1 4 0
1 -5 2 0
1 5 -1 0
1 5 4 0
1 6 -7 0
1 6 -8 0
1 -6 -9 0
1 6 -3 0
1 6 4 0
1 -10 7 0
1 10 -8 0
1 10 -11 0
1 10 2 0
1 -10 9 0
1 10 12 0
1 -10 6 0
1 10 4 0
1 -2 13 0
1 -2 -14 0
1 2 -5 0
1 -2 -15 0
1 -2 -16 0
1 2 -17 0
1 -2 -18 0
1 4 -19 0
1 4 -20 0
1 4 14 0
1 4 -16 0
1 -4 17 0
1 4 1 0
1 -11 -21 0
1 11 -10 0
1 11 5 0
1 11 -16 0
1 11 -22 0
1 11 -3 0
1 3 -23 0
1 3 10 0
1 -3 -5 0
1 3 11 0
1 -3 -22 0
1 3 -1 0
1 -3 -24 0
1 18 7 0
1 18 -8 0
1 -18 9 0
1 -18 25 0
1 -18 4 0
1 -14 -8 0
1 -14 2 0
1 -14 -9 0
1 14 12 0
1 14 18 0
1 -14 -4 0
1 17 -7 0
1 -17 -13 0
1 -17 -26 0
1 17 -9 0
1 -17 -12 0
1 17 -22 0
1 -17 -27 0
1 13 -8 0
1 -13 -21 0
1 -13 -28 0
1 -13 -12 0
1 -13 -17 0
1 13 -27 0
1 -13 -4 0
1 12 29 0
1 12 -30 0
1 -12 -10 0
1 12 -31 0
1 12 18 0
1 8 29 0
1 8 -30 0
1 8 -13 0
1 -8 -10 0
1 8 17 0
1 8 18 0
1 -8 -32 0
1 -9 -7 0
1 9 -20 0
1 9 13 0
1 9 10 0
1 -9 -33 0
1 9 34 0
1 -9 -16 0
1 -9 17 0
1 -9 -6 0
1 9 32 0
1 -7 14 0
1 7 -10 0
1 -7 34 0
1 7 -16 0
1 7 17 0
1 7 -18 0
1 7 32 0
1 -31 -30 0
1 -31 -26 0
1 -31 28 0
1 31 -35 0
1 -31 27 0
1 -30 -8 0
1 -30 20 0
1 30 28 0
1 30 31 0
1 30 12 0
1 30 35 0
1 30 27 0
1 36 -29 0
1 36 8 0
1 36 34 0
1 -36 12 0
1 29 37 0
1 29 8 0
1 -29 26 0
1 29 28 0
1 29 -36 0
1 27 -13 0
1 -27 28 0
1 -27 -36 0
1 -27 -31 0
1 27 17 0
1 28 -29 0
1 -28 36 0
1 -28 31 0
1 28 -17 0
1 -28 27 0
1 35 29 0
1 -35 -13 0
1 35 26 0
1 -35 33 0
1 -35 36 0
1 35 17 0
1 -35 -38 0
1 35 -32 0
1 -26 13 0
1 -26 -39 0
1 -26 17 0
1 -26 -35 0
1 -26 32 0
1 -25 40 0
1 25 -41 0
1 -25 11 0
1 25 -42 0
1 -25 -43 0
1 25 -18 0
1 -25 3 0
1 -23 -40 0
1 23 -41 0
1 -23 42 0
1 23 25 0
1 -23 3 0
1 22 -21 0
1 22 -44 0
1 -22 45 0
1 22 43 0
1 -22 -3 0
1 21 -13 0
1 21 41 0
1 21 -45 0
1 21 -11 0
1 21 42 0
1 -21 -22 0
1 21 -46 0
1 21 47 0
1 21 3 0
1 41 -43 0
1 41 20 0
1 -41 -21 0
1 41 -23 0
1 -43 21 0
1 43 -23 0
1 43 -41 0
1 -43 25 0
1 40 -21 0
1 40 42 0
1 -40 25 0
1 -42 -40 0
1 42 22 0
1 -16 -44 0
1 -16 11 0
1 16 -9 0
1 -16 -46 0
1 -16 3 0
1 16 4 0
1 20 -7 0
1 20 30 0
1 20 -41 0
1 -20 44 0
1 20 -45 0
1 -20 11 0
1 -20 16 0
1 -20 47 0
1 -20 3 0
1 34 -19 0
1 -34 7 0
1 -34 -41 0
1 -34 44 0
1 34 -45 0
1 34 9 0
1 -34 36 0
1 -34 -43 0
1 -34 47 0
1 -34 -24 0
1 -37 29 0
1 -37 -7 0
1 37 44 0
1 -37 48 0
1 -37 -15 0
1 -37 9 0
1 -37 46 0
1 -37 -47 0
1 37 -24 0
1 -45 -21 0
1 -45 -39 0
1 -45 22 0
1 -45 -47 0
1 45 -38 0
1 45 -32 0
1 -47 -37 0
1 47 20 0
1 47 -21 0
1 47 32 0
1 44 37 0
1 44 21 0
1 -44 16 0
1 44 -22 0
1 -44 -46 0
1 46 -20 0
1 -46 -44 0
1 46 -34 0
1 46 16 0
1 46 22 0
1 33 7 0
1 33 -8 0
1 -33 -26 0
1 -33 -45 0
1 33 48 0
1 33 9 0
1 -33 -15 0
1 -33 12 0
1 33 35 0
1 -33 24 0
1 -33 32 0
1 32 -26 0
1 -32 -45 0
1 32 9 0
1 -32 -35 0
1 32 -47 0
1 39 -19 0
1 -39 -26 0
1 39 45 0
1 39 -48 0
1 -39 -47 0
1 -39 38 0
1 38 26 0
1 -38 -45 0
1 38 39 0
1 38 -15 0
1 38 -24 0
1 15 -37 0
1 -15 33 0
1 -15 34 0
1 -15 32 0
1 -19 -39 0
1 19 -33 0
1 -19 34 0
1 -19 4 0
1 -19 -38 0
1 48 -39 0
1 48 11 0
1 48 -33 0
1 48 -38 0
1 -48 32 0
1 -24 37 0
1 -24 -39 0
1 24 33 0
1 -24 34 0
1 -24 38 0
